          97
  Built with Packmol                                             
  N            1.115236        0.965594        1.302423
  H            0.659513        0.611004        2.139353
  H            0.606554        0.575962        0.512930
  H            2.041112        0.545859        1.281319
  O            2.012589        0.499448        6.099669
  H            2.662538        0.856757        5.494583
  H            2.434687        0.542956        6.958397
  O            4.870600        2.325650        2.792772
  H            5.441139        3.094221        2.788886
  H            5.332469        1.686650        3.336675
  O            8.025643        4.916795        6.329126
  H            7.273365        4.480412        6.728975
  H            8.780369        4.595076        6.823453
  O            2.982750        3.391093        5.028797
  H            3.278944        4.265558        5.281408
  H            3.575591        3.131592        4.322629
  O            3.850408        4.957859        7.732580
  H            4.137192        5.203410        6.852983
  H            4.656434        4.711877        8.187868
  O            8.131225        8.270146        2.287277
  H            8.593898        9.108081        2.292863
  H            8.021546        8.050389        3.213101
  O            0.694291        5.021260        0.637209
  H            1.643009        4.923996        0.555319
  H            0.558519        5.962531        0.751436
  O            5.374900        8.848937        6.372994
  H            4.558634        9.295482        6.597805
  H            6.043553        9.294127        6.894706
  O            3.242328        4.781736        2.614101
  H            2.565866        4.307910        3.097961
  H            4.057958        4.564487        3.066896
  O            0.522245        4.556373        5.865707
  H            0.725453        3.743591        5.402755
  H            1.217108        5.161612        5.604318
  O            1.708219        2.835810        7.320097
  H            1.707322        2.422445        6.456754
  H            2.322861        2.312772        7.835964
  O            2.995104        7.488013        6.803602
  H            3.922849        7.291516        6.673558
  H            2.797794        8.158769        6.148905
  O            7.751520        7.922470        7.566773
  H            8.480168        7.302165        7.543863
  H            7.270813        7.758120        6.754749
  O            4.847830        8.280133        4.550452
  H            5.626354        7.758775        4.746200
  H            4.124726        7.652751        4.581858
  O            6.312144        4.846298        1.262411
  H            5.857213        5.636121        0.970094
  H            5.868211        4.130783        0.805865
  O            6.503301        6.098214        7.585068
  H            6.437647        5.786242        8.487617
  H            5.631013        6.439700        7.385133
  O            0.862300        5.135843        2.849503
  H            0.562996        5.437203        3.707309
  H            0.531842        4.239392        2.781342
  O            5.947105        5.566291        3.039630
  H            5.161213        6.112301        3.017759
  H            6.673516        6.190018        3.011996
  O            4.621910        2.487991        0.695270
  H            3.944182        1.825125        0.827656
  H            4.140467        3.313297        0.627774
  O            1.978248        8.245294        0.524402
  H            2.764256        7.699013        0.524053
  H            1.509344        7.990619        1.319853
  O            2.600370        9.093581        7.980756
  H            1.740743        8.776351        7.703918
  H            2.492932        9.297522        8.910454
  O            4.615764        2.971685        6.970273
  H            5.300832        3.579636        6.692229
  H            4.763345        2.186132        6.442448
  O            8.923858        5.830355        1.366960
  H            8.797138        6.507546        0.702440
  H            9.220078        6.307795        2.142703
  O            5.291246        3.908076        4.735399
  H            5.984685        4.567899        4.732733
  H            5.753464        3.074545        4.830558
  O            1.665057        6.049430        8.298916
  H            2.027497        6.916993        8.478373
  H            1.848623        5.899945        7.370783
  O            8.134891        8.511010        5.136289
  H            8.696747        9.284835        5.178064
  H            7.255289        8.860722        4.989748
  O            2.893982        6.921946        2.527681
  H            2.766674        7.300844        3.397428
  H            3.702278        7.323510        2.206937
  O            2.166343        2.956216        1.210842
  H            2.186379        2.385560        1.979075
  H            1.241108        3.178331        1.100945
  O            6.529052        3.595832        8.453320
  H            6.429291        3.144367        9.291449
  H            6.776588        2.905693        7.836954
  O            0.515927        8.073198        3.512918
  H            0.722151        7.280270        3.017975
  H            1.314737        8.262655        4.006356
  O            4.565036        7.980383        8.538026
  H            5.048163        8.806668        8.546563
  H            3.984443        8.033993        9.297967
